Route #1: 1 13 41 33 19 26 19 25 50 17 2 43 2 1 
Route #2: 1 5 1 
Route #3: 1 31 34 2 23 2 24 50 4 45 41 40 10 41 18 1 
Route #4: 1 31 49 6 16 21 16 14 16 28 16 46 31 3 1 
Route #5: 1 7 2 42 44 2 29 22 37 22 48 38 16 30 31 1 
Route #6: 1 27 1 
Route #7: 1 35 47 9 36 39 11 39 12 36 20 36 15 36 8 1 
Cost 746.0
